33 2000
5 121
2 122
7 110
11 101
11 127
4 17
7 122
4 116
6 110
9 118
3 164
10 134
4 196
11 196
3 121
2 178
7 134
10 151
7 181
11 178
10 118
2 175
3 166
10 166
8 151
8 181
8 164
5 116
9 127
5 141
8 101
3 141
11 175
